(declare-const a Real)
(declare-const b Real)
(declare-const c Real)
(assert (= (* a b c) 1))
(assert (not (<= (+ (pow (* a b c) (/ 2 3)) (* -1 (pow a 2)) (* -2 (pow b 2)) (* -2 (pow c 2)) (* 2 (pow (+ b c) (/ 2 3)) (pow (+ (* a b (pow c 2)) (* a c (pow b 2))) (pow 3 -1)))) 0)))
(check-sat)
(get-model)
(exit)